1,35736,43779,16946,18194,26031,24461,36528,10031,21723,3601,38112,29626,15455,11181,42116,2133,28343,12867,34025,31448,
2,2133,3601,711,2864,2133,1312,1412,2798,2695,2798,3790,2093,7755,1516,11932,5870,190,1778,2366,13109,
3,190,711,1341,711,1945,792,19406,1764,545,1516,711,1412,2133,671,12071,1516,671,1516,3067,7453,
4,190,545,711,585,1056,585,1470,1993,661,671,1056,1696,1516,671,585,792,585,1417,29927,17544,
5,190,545,671,585,585,585,585,51,545,585,585,51,51,671,661,545,585,545,11879,6348,
6,51,51,444,51,51,51,3910,51,51,51,51,51,51,51,51,51,51,51,8305,29402,
7,51,51,51,51,51,51,51,51,51,51,51,51,51,51,51,51,51,51,51,51,
8,51,51,51,51,51,51,51,51,51,51,51,51,51,51,51,51,51,51,46682,51,
9,51,51,51,51,51,51,51,51,51,51,51,51,51,51,51,51,51,51,28732,15469,
10,51,51,51,51,51,51,51,51,51,51,51,51,51,51,51,51,51,51,51,58363,
11,51,51,51,51,51,51,51,51,51,51,51,51,51,51,51,51,51,51,40611,44716,
12,51,51,51,51,51,51,51,51,51,51,51,51,51,51,51,51,51,51,53149,38669,
13,51,51,51,51,51,51,51,51,51,51,51,51,51,51,51,51,51,51,31605,51,
14,51,51,51,51,51,51,51,51,51,51,51,51,51,51,51,51,31707,51,51,35763,
15,51,51,51,51,51,51,50856,51,51,51,51,51,51,51,51,51,51,51,51,52492,
16,51,51,51,51,51,51,51,51,51,51,51,51,51,51,51,51,51,51,55816,44282,
17,51,51,51,51,51,51,51,51,51,51,51,51,51,51,51,51,51,51,51797,18898,
18,51,51,51,51,27446,51,51,51,51,51,51,51,51,51,51,19210,51,51,5827,46041,
19,51,51,51,51,51,51,51,51,51,51,51,51,51,51,51,51,51,51,51,25610,
20,51,51,51,51,21430,51,51,51,51,51,51,51,51,51,51,51,51,51,51,51430,
21,51,51,51,51,51,51,51,3824,51,51,51,51,51,51,21430,51,51,51,12669,35021,
22,51,51,51,51,51,51,51,51,51,51,51,51,51,51,51,51,51,51,51,40166,
23,51,51,51,51,51,51,51,51,51,51,51,51,51,51,51,51,51,51,49443,45242,
24,51,51,51,51,51,51,51,51,51,51,51,51,51,51,51,51,51,51,8566,48403,
25,51,51,51,51,51,51,51,51,51,51,51,51,51,51,51,51,51,51,51852,28334,
26,51,51,51,51,51,51,51,51,51,51,51,51,51,51,51,51,51,51,51,45793,
27,51,51,51,51,51,51,51,51,51,51,51,51,51,51,51,51,51,51,24421,10125,
28,51,51,51,51,51,51,51,51,51,51,51,51,51,51,51,51,51,51,51,51,
29,51,51,51,51,51,51,51,51,51,51,51,51,51,51,24193,51,51,51,51,766,
30,51,51,51,51,51,51,51,51,51,51,51,15228,51,51,51,51,51,51,51,34341,
31,51,51,51,51,51,51,51,51,51,51,51,51,51,51,51,51,51,51,51,53914,
32,51,51,51,51,26641,51,51,51,51,51,51,51,51,51,51,51,51,51,57191,26625,
33,51,51,51,51,51,51,51,51,51,51,51,51,51,51,51,51,51,51,51,51814,
34,51,51,51,51,51,51,51,51,51,51,51,51,51,51,51,51,51,51,17634,51,
35,51,51,51,51,51,51,51,51,6926,51,51,51,51,51,51,51,51,51,51,39671,
36,51,51,51,51,51,51,51,51,51,51,51,51,51,51,51,51,51,51,22460,51,
37,51,51,51,51,51,51,51,51,51,51,51,51,51,51,51,51,51,51,51,3487,
38,51,51,51,51,51,51,51,51,51,51,51,51,51,51,51,51,51,28326,43359,29861,
39,51,51,51,51,51,51,51,51,51,51,51,51,51,51,51,51,51,51,51,56640,
40,51,51,51,7453,51,51,51,51,51,51,51,51,51,51,51,51,51,28058,47042,17909,
41,51,51,51,51,51,51,51,51,51,51,51,51,51,51,51,51,51,51,3990,41323,
42,51,51,51,51,51,51,51,51,51,51,51,51,51,51,51,51,51,51,11088,46995,
43,51,51,51,51,51,51,51,51,51,51,51,17063,51,51,51,51,51,51,51,15427,
44,51,51,51,51,51,51,51,51,51,51,51,51,51,51,51,51,51,51,51,51,
45,51,51,51,51,51,51,51,51,51,51,51,51,51,51,51,51,51,51,29259,46581,
46,51,51,51,11413,51,51,51,21443,51,51,51,51,51,51,51,51,51,51,51,36266,
47,51,51,51,51,51,51,51,51,51,51,51,51,51,51,51,51,51,51,51,51,
48,51,51,51,51,51,51,51,51,51,51,51,51,51,51,51,51,51,51,51,52245,
49,51,51,51,51,51,51,51,51,51,51,51,51,51,51,51,51,51,51,38921,57118,
50,51,51,51,51,51,51,51,51,51,51,51,51,51,51,51,51,51,51,21926,50748,
51,51,51,51,51,51,51,51,51,51,51,51,51,51,51,51,51,51,51,27710,28794,
52,51,51,51,51,51,51,51,51,51,51,51,51,51,51,51,51,51,51,51,51,
53,51,51,51,51,51,51,51,51,51,51,51,51,51,51,51,51,51,51,51,51,
54,51,51,51,51,51,51,51,51,51,51,51,51,51,51,51,51,51,51,50139,19402,
55,51,51,51,51,51,51,51,51,51,51,51,51,51,51,51,51,51,51,51,51,
56,51,51,51,51,51,51,51,51,51,51,51,51,51,51,51,51,51,51,2345,31485,
57,51,51,51,51,51,51,51,51,51,51,51,51,51,51,51,51,51,51,42464,51,
58,51,51,51,51,51,51,51,51,51,51,51,51,51,51,51,51,51,51,14370,30253,
59,51,51,51,51,51,51,51,51,51,51,51,51,51,51,51,51,51,51,30707,44190,
60,51,51,51,51,51,51,51,51,51,51,51,51,1903,51,51,51,51,13525,51,22364,
61,51,51,51,51,51,51,51,13525,51,51,51,51,51,51,51,51,51,51,32316,3394,
62,51,51,51,51,51,51,51,51,51,51,51,51,51,51,51,51,51,51,33077,51,
63,51,51,51,51,51,51,51,51,51,51,51,51,51,51,51,51,51,51,51,33299,
64,51,51,51,51,51,51,51,51,51,51,51,51,51,51,51,51,51,51,27168,34948,
65,51,51,51,51,51,51,51,51,51,51,51,51,51,51,51,51,51,51,51,29232,
66,51,51,51,51,51,51,51,51,51,51,51,51,51,51,51,51,51,51,45028,26248,
67,51,51,13311,51,51,51,51,51,51,51,51,51,51,51,51,51,51,51,42614,51,
68,51,51,51,51,51,51,51,51,51,51,51,51,51,51,51,51,51,51,3796,51,
69,51,51,51,51,51,51,51,51,51,51,51,51,51,51,51,51,51,51,14242,3876,
70,51,51,51,51,51,51,51,51,51,51,51,51,51,51,51,51,51,51,14793,11183,
71,51,51,51,51,51,51,51,51,51,51,51,51,51,51,51,51,51,51,16754,43895,
72,51,51,51,51,51,51,51,51,51,51,51,51,51,51,51,51,51,51,51,22608,
73,51,51,51,51,51,51,51,51,51,51,51,51,51,51,51,51,51,51,38651,28991,
74,51,51,51,51,51,51,51,51,51,51,51,51,51,51,51,51,51,51,51,19648,
75,51,51,51,51,51,51,51,51,51,51,51,51,51,9142,51,51,51,51,24415,51,
76,51,51,51,51,51,51,51,51,51,51,51,51,51,51,51,51,51,51,43887,51,
77,51,51,51,51,51,51,51,51,51,51,51,51,51,51,51,51,51,51,51,51,
78,51,51,51,51,51,51,51,51,51,51,51,51,42308,51,51,51,51,51,51006,51,
79,51,51,51,51,51,51,51,51,51,12135,51,51,51,51,51,51,51,51,29836,55747,
80,51,51,51,51,51,51,51,51,51,51,51,51,51,51,51,51,51,51,51,42285,
81,51,51,51,51,51,51,51,51,51,51,51,51,51,2093,51,51,51,51,51,51,
82,51,51,51,51,51,51,51,51,51,51,51,51,51,51,51,51,51,51,37953,46221,
83,51,51,51,51,51,51,51,51,51,51,51,51,51,51,51,51,51,51,44524,35456,
84,51,51,51,51,51,51,21520,51,51,51,51,51,51,51,51,51,51,51,16646,51,
85,51,51,51,51,51,51,51,51,51,51,51,51,51,51,51,51,51,51,17564,42020,
86,51,51,51,51,51,51,51,51,51,51,51,51,51,51,51,51,51,51,23263,33911,
87,51,51,51,51,51,51,51,51,51,51,51,51,51,51,51,51,51,51,21217,51,
88,51,51,51,51,51,51,51,51,51,51,51,51,51,51,51,51,51,51,47496,51,
89,51,51,51,51,51,51,51,51,51,51,51,51,51,51,51,51,51,51,39623,51,
90,51,51,51,51,51,51,51,51,51,51,51,51,51,51,51,51,51,51,51,51,
91,51,51,51,51,51,51,51,51,51,51,51,51,51,51,51,51,51,51,51,49964,
92,51,51,51,51,51,51,51,51,51,51,51,51,51,51,51,51,51,51,51,40767,
93,51,51,51,51,51,51,51,51,51,51,51,51,51,51,51,51,51,51,41866,16557,
94,51,51,51,51,51,51,51,51,51,51,51,51,51,51,51,51,51,51,2563,51,
95,51,51,51,51,51,51,51,51,51,51,51,51,51,51,51,51,51,51,51,51,
96,51,51,51,51,51,51,51,51,51,51,51,51,51,51,51,51,51,51,51,51,
97,51,51,51,51,51,51,51,51,51,51,51,51,51,51,51,51,51,51,45952,12811,
98,51,51,51,51,51,51,51,51,51,51,51,51,51,51,51,51,51,51,47312,51,
99,51,51,51,51,51,51,51,51,51,51,51,51,51,51,51,51,51,51,51,40611,
100,51,51,51,51,51,51,51,2689,51,51,51,51,51,51,51,51,51,51,51,51,
